&control


   calculation='scf',
   restart_mode='from_scratch',
   prefix='silicon',
   pseudo_dir = './pseudo',
   outdir = './tmp'
















